0	69	166	33	158	115	193	71	79	165	43	
118	0	73	182	84	56	130	87	192	38	155	
176	113	0	43	76	32	87	40	74	148	83	
48	28	34	0	62	144	83	176	70	171	97	
189	158	125	45	0	93	66	154	181	159	87	
126	99	46	83	165	0	41	158	171	195	143	
115	52	43	75	47	86	0	198	44	168	173	
100	43	67	90	111	174	75	0	66	80	67	
125	190	74	123	103	189	188	143	0	176	21	
116	159	74	156	146	45	134	69	93	0	112	
105	46	107	127	146	29	46	182	138	156	0	
